Route #1: 4 22 17 49 15 19 32 34 38 48 2
Route #2: 9 16 46 13 26 50 12 45
Route #3: 23 39 14 21 11 28 24 31 3
Route #4: 42 20 18 30 1 6
Route #5: 44 10 29 27 8 5 51
Route #6: 33 35 43 7 37 47 41
Route #7: 25 36 40
Cost 764